c turning on binary mode checking
c parsing input formula with 202048 variables and 780985 clauses
c finished parsing, read 2163475 bytes from proof file
c detected empty clause; start verification via backward checking
c 970 of 780985 clauses in core                            
c 243 of 89160 lemmas in core using 4693 resolution steps
c 0 RAT lemmas in core; 21 redundant literals in core lemmas
s VERIFIED
c verification time: 0.876 seconds
